p cnf 621 1464
a 36 41 46 51 56 61 66 71 77 83 89 95 101 107 0
e 620 621 0
a 29 30 31 32 33 34 35 0
e 2 3 4 5 6 7 8 9 11 12 14 15 17 18 20 21 23 24 26 27 39 40 44 45 49 50 54 55 59 60 64 65 69 70 75 76 81 82 87 88 93 94 99 100 105 106 111 112 113 114 115 116 117 118 119 10 13 16 19 22 25 28 37 38 42 43 47 48 52 53 57 58 62 63 67 68 72 73 74 78 79 80 84 85 86 90 91 92 96 97 98 102 103 104 108 109 110 121 123 125 127 129 131 133 120 122 124 126 128 130 132 134 135 136 137 138 139 140 142 143 144 145 146 147 148 149 150 151 152 153 154 155 156 157 158 159 160 161 162 164 163 205 210 215 220 225 230 235 240 246 252 258 264 270 276 0
a 198 199 200 201 202 203 204 0
e 171 172 173 174 175 176 177 178 180 181 183 184 186 187 189 190 192 193 195 196 208 209 213 214 218 219 223 224 228 229 233 234 238 239 244 245 250 251 256 257 262 263 268 269 274 275 280 281 282 283 284 285 286 287 288 179 182 185 188 191 194 197 206 207 211 212 216 217 221 222 226 227 231 232 236 237 241 242 243 247 248 249 253 254 255 259 260 261 265 266 267 271 272 273 277 278 279 290 292 294 296 298 300 302 289 291 293 295 297 299 301 303 304 305 306 307 308 309 311 312 313 314 315 316 317 318 319 320 321 322 323 324 325 326 327 328 329 330 331 333 332 167 168 376 381 386 391 396 401 406 411 417 423 429 435 441 447 0
a 369 370 371 372 373 374 375 0
e 342 343 344 345 346 347 348 349 351 352 354 355 357 358 360 361 363 364 366 367 379 380 384 385 389 390 394 395 399 400 404 405 409 410 415 416 421 422 427 428 433 434 439 440 445 446 451 452 453 454 455 456 457 458 459 350 353 356 359 362 365 368 377 378 382 383 387 388 392 393 397 398 402 403 407 408 412 413 414 418 419 420 424 425 426 430 431 432 436 437 438 442 443 444 448 449 450 461 463 465 467 469 471 473 460 462 464 466 468 470 472 474 475 476 477 478 479 480 482 483 484 485 486 487 488 489 490 491 492 493 494 495 496 497 498 499 500 501 502 504 503 336 337 338 339 507 508 509 548 553 558 563 568 573 578 583 589 595 601 607 613 619 0
8 -9 -620 0
9 -8 -620 0
10 -9 -620 0
9 -10 -620 0
11 -12 -620 0
12 -11 -620 0
13 -12 -620 0
12 -13 -620 0
14 -15 -620 0
15 -14 -620 0
16 -15 -620 0
15 -16 -620 0
17 -18 -620 0
18 -17 -620 0
19 -18 -620 0
18 -19 -620 0
20 -21 -620 0
21 -20 -620 0
22 -21 -620 0
21 -22 -620 0
23 -24 -620 0
24 -23 -620 0
25 -24 -620 0
24 -25 -620 0
26 -27 -620 0
27 -26 -620 0
28 -27 -620 0
27 -28 -620 0
39 -37 -620 0
39 -38 -620 0
37 38 -39 -620 0
39 -40 -620 0
40 -39 -620 0
44 -42 -620 0
44 -43 -620 0
42 43 -44 -620 0
44 -45 -620 0
45 -44 -620 0
49 -47 -620 0
49 -48 -620 0
47 48 -49 -620 0
49 -50 -620 0
50 -49 -620 0
54 -52 -620 0
54 -53 -620 0
52 53 -54 -620 0
54 -55 -620 0
55 -54 -620 0
59 -57 -620 0
59 -58 -620 0
57 58 -59 -620 0
59 -60 -620 0
60 -59 -620 0
64 -62 -620 0
64 -63 -620 0
62 63 -64 -620 0
64 -65 -620 0
65 -64 -620 0
69 -67 -620 0
69 -68 -620 0
67 68 -69 -620 0
69 -70 -620 0
70 -69 -620 0
75 -72 -620 0
75 -73 -620 0
75 -74 -620 0
72 73 74 -75 -620 0
75 -76 -620 0
76 -75 -620 0
81 -78 -620 0
81 -79 -620 0
81 -80 -620 0
78 79 80 -81 -620 0
81 -82 -620 0
82 -81 -620 0
87 -84 -620 0
87 -85 -620 0
87 -86 -620 0
84 85 86 -87 -620 0
87 -88 -620 0
88 -87 -620 0
93 -90 -620 0
93 -91 -620 0
93 -92 -620 0
90 91 92 -93 -620 0
93 -94 -620 0
94 -93 -620 0
99 -96 -620 0
99 -97 -620 0
99 -98 -620 0
96 97 98 -99 -620 0
99 -100 -620 0
100 -99 -620 0
105 -102 -620 0
105 -103 -620 0
105 -104 -620 0
102 103 104 -105 -620 0
105 -106 -620 0
106 -105 -620 0
111 -108 -620 0
111 -109 -620 0
111 -110 -620 0
108 109 110 -111 -620 0
111 -112 -620 0
112 -111 -620 0
71 -113 -620 0
113 -71 -620 0
77 -114 -620 0
114 -77 -620 0
83 -115 -620 0
115 -83 -620 0
89 -116 -620 0
116 -89 -620 0
95 -117 -620 0
117 -95 -620 0
101 -118 -620 0
118 -101 -620 0
107 -119 -620 0
119 -107 -620 0
71 -10 -620 0
36 -10 -620 0
10 -71 -36 -620 0
77 -13 -620 0
41 -13 -620 0
13 -77 -41 -620 0
83 -16 -620 0
46 -16 -620 0
16 -83 -46 -620 0
89 -19 -620 0
51 -19 -620 0
19 -89 -51 -620 0
95 -22 -620 0
56 -22 -620 0
22 -95 -56 -620 0
101 -25 -620 0
61 -25 -620 0
25 -101 -61 -620 0
107 -28 -620 0
66 -28 -620 0
28 -107 -66 -620 0
71 -37 -620 0
120 -37 -620 0
37 -71 -120 -620 0
71 -38 -620 0
36 -38 -620 0
121 -38 -620 0
38 -71 -36 -121 -620 0
77 -42 -620 0
122 -42 -620 0
2 -42 -620 0
42 -77 -122 -2 -620 0
77 -43 -620 0
41 -43 -620 0
123 -43 -620 0
43 -77 -41 -123 -620 0
83 -47 -620 0
124 -47 -620 0
3 -47 -620 0
47 -83 -124 -3 -620 0
83 -48 -620 0
46 -48 -620 0
125 -48 -620 0
48 -83 -46 -125 -620 0
89 -52 -620 0
126 -52 -620 0
4 -52 -620 0
52 -89 -126 -4 -620 0
89 -53 -620 0
51 -53 -620 0
127 -53 -620 0
53 -89 -51 -127 -620 0
95 -57 -620 0
128 -57 -620 0
5 -57 -620 0
57 -95 -128 -5 -620 0
95 -58 -620 0
56 -58 -620 0
129 -58 -620 0
58 -95 -56 -129 -620 0
101 -62 -620 0
130 -62 -620 0
6 -62 -620 0
62 -101 -130 -6 -620 0
101 -63 -620 0
61 -63 -620 0
131 -63 -620 0
63 -101 -61 -131 -620 0
107 -67 -620 0
132 -67 -620 0
7 -67 -620 0
67 -107 -132 -7 -620 0
107 -68 -620 0
66 -68 -620 0
133 -68 -620 0
68 -107 -66 -133 -620 0
134 -72 -620 0
120 -72 -620 0
29 -72 -620 0
72 -134 -120 -29 -620 0
71 -73 -620 0
120 -73 -620 0
73 -71 -120 -620 0
71 -74 -620 0
36 -74 -620 0
121 -74 -620 0
74 -71 -36 -121 -620 0
135 -78 -620 0
122 -78 -620 0
30 -78 -620 0
78 -135 -122 -30 -620 0
77 -79 -620 0
122 -79 -620 0
79 -77 -122 -620 0
77 -80 -620 0
41 -80 -620 0
123 -80 -620 0
80 -77 -41 -123 -620 0
136 -84 -620 0
124 -84 -620 0
31 -84 -620 0
84 -136 -124 -31 -620 0
83 -85 -620 0
124 -85 -620 0
85 -83 -124 -620 0
83 -86 -620 0
46 -86 -620 0
125 -86 -620 0
86 -83 -46 -125 -620 0
137 -90 -620 0
126 -90 -620 0
32 -90 -620 0
90 -137 -126 -32 -620 0
89 -91 -620 0
126 -91 -620 0
91 -89 -126 -620 0
89 -92 -620 0
51 -92 -620 0
127 -92 -620 0
92 -89 -51 -127 -620 0
138 -96 -620 0
128 -96 -620 0
33 -96 -620 0
96 -138 -128 -33 -620 0
95 -97 -620 0
128 -97 -620 0
97 -95 -128 -620 0
95 -98 -620 0
56 -98 -620 0
129 -98 -620 0
98 -95 -56 -129 -620 0
139 -102 -620 0
130 -102 -620 0
34 -102 -620 0
102 -139 -130 -34 -620 0
101 -103 -620 0
130 -103 -620 0
103 -101 -130 -620 0
101 -104 -620 0
61 -104 -620 0
131 -104 -620 0
104 -101 -61 -131 -620 0
140 -108 -620 0
132 -108 -620 0
35 -108 -620 0
108 -140 -132 -35 -620 0
107 -109 -620 0
132 -109 -620 0
109 -107 -132 -620 0
107 -110 -620 0
66 -110 -620 0
133 -110 -620 0
110 -107 -66 -133 -620 0
29 121 -620 0
-29 -121 -620 0
30 123 -620 0
-30 -123 -620 0
31 125 -620 0
-31 -125 -620 0
32 127 -620 0
-32 -127 -620 0
33 129 -620 0
-33 -129 -620 0
34 131 -620 0
-34 -131 -620 0
35 133 -620 0
-35 -133 -620 0
36 120 -620 0
-36 -120 -620 0
41 122 -620 0
-41 -122 -620 0
46 124 -620 0
-46 -124 -620 0
51 126 -620 0
-51 -126 -620 0
56 128 -620 0
-56 -128 -620 0
61 130 -620 0
-61 -130 -620 0
66 132 -620 0
-66 -132 -620 0
71 134 -620 0
-71 -134 -620 0
77 135 -620 0
-77 -135 -620 0
83 136 -620 0
-83 -136 -620 0
89 137 -620 0
-89 -137 -620 0
95 138 -620 0
-95 -138 -620 0
101 139 -620 0
-101 -139 -620 0
107 140 -620 0
-107 -140 -620 0
9 -142 -620 0
21 -142 -620 0
142 -9 -21 -620 0
9 -143 -620 0
24 -143 -620 0
143 -9 -24 -620 0
9 -144 -620 0
27 -144 -620 0
144 -9 -27 -620 0
12 -145 -620 0
15 -145 -620 0
145 -12 -15 -620 0
12 -146 -620 0
18 -146 -620 0
146 -12 -18 -620 0
12 -147 -620 0
21 -147 -620 0
147 -12 -21 -620 0
9 -148 -620 0
12 -148 -620 0
148 -9 -12 -620 0
12 -149 -620 0
24 -149 -620 0
149 -12 -24 -620 0
12 -150 -620 0
27 -150 -620 0
150 -12 -27 -620 0
15 -151 -620 0
18 -151 -620 0
151 -15 -18 -620 0
15 -152 -620 0
21 -152 -620 0
152 -15 -21 -620 0
15 -153 -620 0
24 -153 -620 0
153 -15 -24 -620 0
15 -154 -620 0
27 -154 -620 0
154 -15 -27 -620 0
18 -155 -620 0
21 -155 -620 0
155 -18 -21 -620 0
18 -156 -620 0
24 -156 -620 0
156 -18 -24 -620 0
18 -157 -620 0
27 -157 -620 0
157 -18 -27 -620 0
21 -158 -620 0
24 -158 -620 0
158 -21 -24 -620 0
9 -159 -620 0
15 -159 -620 0
159 -9 -15 -620 0
21 -160 -620 0
27 -160 -620 0
160 -21 -27 -620 0
24 -161 -620 0
27 -161 -620 0
161 -24 -27 -620 0
9 -162 -620 0
18 -162 -620 0
162 -9 -18 -620 0
163 164 -620 0
-163 -164 -620 0
163 -148 -620 0
163 -159 -620 0
163 -162 -620 0
163 -142 -620 0
163 -143 -620 0
163 -144 -620 0
163 -145 -620 0
163 -146 -620 0
163 -147 -620 0
163 -149 -620 0
163 -150 -620 0
163 -151 -620 0
163 -152 -620 0
163 -153 -620 0
163 -154 -620 0
163 -155 -620 0
163 -156 -620 0
163 -157 -620 0
163 -158 -620 0
163 -160 -620 0
163 -161 -620 0
148 159 162 142 143 144 145 146 147 149 150 151 152 153 154 155 156 157 158 160 161 -163 -620 0
164 -620 0
40 -205 -620 0
205 -40 -620 0
45 -210 -620 0
210 -45 -620 0
50 -215 -620 0
215 -50 -620 0
55 -220 -620 0
220 -55 -620 0
60 -225 -620 0
225 -60 -620 0
65 -230 -620 0
230 -65 -620 0
70 -235 -620 0
235 -70 -620 0
76 -240 -620 0
240 -76 -620 0
82 -246 -620 0
246 -82 -620 0
88 -252 -620 0
252 -88 -620 0
94 -258 -620 0
258 -94 -620 0
100 -264 -620 0
264 -100 -620 0
106 -270 -620 0
270 -106 -620 0
112 -276 -620 0
276 -112 -620 0
168 167 -620 0
36 -205 -168 -620 0
205 -36 -168 -620 0
41 -210 -168 -620 0
210 -41 -168 -620 0
46 -215 -168 -620 0
215 -46 -168 -620 0
51 -220 -168 -620 0
220 -51 -168 -620 0
56 -225 -168 -620 0
225 -56 -168 -620 0
61 -230 -168 -620 0
230 -61 -168 -620 0
66 -235 -168 -620 0
235 -66 -168 -620 0
71 -240 -168 -620 0
240 -71 -168 -620 0
77 -246 -168 -620 0
246 -77 -168 -620 0
83 -252 -168 -620 0
252 -83 -168 -620 0
89 -258 -168 -620 0
258 -89 -168 -620 0
95 -264 -168 -620 0
264 -95 -168 -620 0
101 -270 -168 -620 0
270 -101 -168 -620 0
107 -276 -168 -620 0
276 -107 -168 -620 0
177 -178 -167 -620 0
178 -177 -167 -620 0
179 -178 -167 -620 0
178 -179 -167 -620 0
180 -181 -167 -620 0
181 -180 -167 -620 0
182 -181 -167 -620 0
181 -182 -167 -620 0
183 -184 -167 -620 0
184 -183 -167 -620 0
185 -184 -167 -620 0
184 -185 -167 -620 0
186 -187 -167 -620 0
187 -186 -167 -620 0
188 -187 -167 -620 0
187 -188 -167 -620 0
189 -190 -167 -620 0
190 -189 -167 -620 0
191 -190 -167 -620 0
190 -191 -167 -620 0
192 -193 -167 -620 0
193 -192 -167 -620 0
194 -193 -167 -620 0
193 -194 -167 -620 0
195 -196 -167 -620 0
196 -195 -167 -620 0
197 -196 -167 -620 0
196 -197 -167 -620 0
208 -206 -167 -620 0
208 -207 -167 -620 0
206 207 -208 -167 -620 0
208 -209 -167 -620 0
209 -208 -167 -620 0
213 -211 -167 -620 0
213 -212 -167 -620 0
211 212 -213 -167 -620 0
213 -214 -167 -620 0
214 -213 -167 -620 0
218 -216 -167 -620 0
218 -217 -167 -620 0
216 217 -218 -167 -620 0
218 -219 -167 -620 0
219 -218 -167 -620 0
223 -221 -167 -620 0
223 -222 -167 -620 0
221 222 -223 -167 -620 0
223 -224 -167 -620 0
224 -223 -167 -620 0
228 -226 -167 -620 0
228 -227 -167 -620 0
226 227 -228 -167 -620 0
228 -229 -167 -620 0
229 -228 -167 -620 0
233 -231 -167 -620 0
233 -232 -167 -620 0
231 232 -233 -167 -620 0
233 -234 -167 -620 0
234 -233 -167 -620 0
238 -236 -167 -620 0
238 -237 -167 -620 0
236 237 -238 -167 -620 0
238 -239 -167 -620 0
239 -238 -167 -620 0
244 -241 -167 -620 0
244 -242 -167 -620 0
244 -243 -167 -620 0
241 242 243 -244 -167 -620 0
244 -245 -167 -620 0
245 -244 -167 -620 0
250 -247 -167 -620 0
250 -248 -167 -620 0
250 -249 -167 -620 0
247 248 249 -250 -167 -620 0
250 -251 -167 -620 0
251 -250 -167 -620 0
256 -253 -167 -620 0
256 -254 -167 -620 0
256 -255 -167 -620 0
253 254 255 -256 -167 -620 0
256 -257 -167 -620 0
257 -256 -167 -620 0
262 -259 -167 -620 0
262 -260 -167 -620 0
262 -261 -167 -620 0
259 260 261 -262 -167 -620 0
262 -263 -167 -620 0
263 -262 -167 -620 0
268 -265 -167 -620 0
268 -266 -167 -620 0
268 -267 -167 -620 0
265 266 267 -268 -167 -620 0
268 -269 -167 -620 0
269 -268 -167 -620 0
274 -271 -167 -620 0
274 -272 -167 -620 0
274 -273 -167 -620 0
271 272 273 -274 -167 -620 0
274 -275 -167 -620 0
275 -274 -167 -620 0
280 -277 -167 -620 0
280 -278 -167 -620 0
280 -279 -167 -620 0
277 278 279 -280 -167 -620 0
280 -281 -167 -620 0
281 -280 -167 -620 0
240 -282 -167 -620 0
282 -240 -167 -620 0
246 -283 -167 -620 0
283 -246 -167 -620 0
252 -284 -167 -620 0
284 -252 -167 -620 0
258 -285 -167 -620 0
285 -258 -167 -620 0
264 -286 -167 -620 0
286 -264 -167 -620 0
270 -287 -167 -620 0
287 -270 -167 -620 0
276 -288 -167 -620 0
288 -276 -167 -620 0
240 -179 -167 -620 0
205 -179 -167 -620 0
179 -240 -205 -167 -620 0
246 -182 -167 -620 0
210 -182 -167 -620 0
182 -246 -210 -167 -620 0
252 -185 -167 -620 0
215 -185 -167 -620 0
185 -252 -215 -167 -620 0
258 -188 -167 -620 0
220 -188 -167 -620 0
188 -258 -220 -167 -620 0
264 -191 -167 -620 0
225 -191 -167 -620 0
191 -264 -225 -167 -620 0
270 -194 -167 -620 0
230 -194 -167 -620 0
194 -270 -230 -167 -620 0
276 -197 -167 -620 0
235 -197 -167 -620 0
197 -276 -235 -167 -620 0
240 -206 -167 -620 0
289 -206 -167 -620 0
206 -240 -289 -167 -620 0
240 -207 -167 -620 0
205 -207 -167 -620 0
290 -207 -167 -620 0
207 -240 -205 -290 -167 -620 0
246 -211 -167 -620 0
291 -211 -167 -620 0
171 -211 -167 -620 0
211 -246 -291 -171 -167 -620 0
246 -212 -167 -620 0
210 -212 -167 -620 0
292 -212 -167 -620 0
212 -246 -210 -292 -167 -620 0
252 -216 -167 -620 0
293 -216 -167 -620 0
172 -216 -167 -620 0
216 -252 -293 -172 -167 -620 0
252 -217 -167 -620 0
215 -217 -167 -620 0
294 -217 -167 -620 0
217 -252 -215 -294 -167 -620 0
258 -221 -167 -620 0
295 -221 -167 -620 0
173 -221 -167 -620 0
221 -258 -295 -173 -167 -620 0
258 -222 -167 -620 0
220 -222 -167 -620 0
296 -222 -167 -620 0
222 -258 -220 -296 -167 -620 0
264 -226 -167 -620 0
297 -226 -167 -620 0
174 -226 -167 -620 0
226 -264 -297 -174 -167 -620 0
264 -227 -167 -620 0
225 -227 -167 -620 0
298 -227 -167 -620 0
227 -264 -225 -298 -167 -620 0
270 -231 -167 -620 0
299 -231 -167 -620 0
175 -231 -167 -620 0
231 -270 -299 -175 -167 -620 0
270 -232 -167 -620 0
230 -232 -167 -620 0
300 -232 -167 -620 0
232 -270 -230 -300 -167 -620 0
276 -236 -167 -620 0
301 -236 -167 -620 0
176 -236 -167 -620 0
236 -276 -301 -176 -167 -620 0
276 -237 -167 -620 0
235 -237 -167 -620 0
302 -237 -167 -620 0
237 -276 -235 -302 -167 -620 0
303 -241 -167 -620 0
289 -241 -167 -620 0
198 -241 -167 -620 0
241 -303 -289 -198 -167 -620 0
240 -242 -167 -620 0
289 -242 -167 -620 0
242 -240 -289 -167 -620 0
240 -243 -167 -620 0
205 -243 -167 -620 0
290 -243 -167 -620 0
243 -240 -205 -290 -167 -620 0
304 -247 -167 -620 0
291 -247 -167 -620 0
199 -247 -167 -620 0
247 -304 -291 -199 -167 -620 0
246 -248 -167 -620 0
291 -248 -167 -620 0
248 -246 -291 -167 -620 0
246 -249 -167 -620 0
210 -249 -167 -620 0
292 -249 -167 -620 0
249 -246 -210 -292 -167 -620 0
305 -253 -167 -620 0
293 -253 -167 -620 0
200 -253 -167 -620 0
253 -305 -293 -200 -167 -620 0
252 -254 -167 -620 0
293 -254 -167 -620 0
254 -252 -293 -167 -620 0
252 -255 -167 -620 0
215 -255 -167 -620 0
294 -255 -167 -620 0
255 -252 -215 -294 -167 -620 0
306 -259 -167 -620 0
295 -259 -167 -620 0
201 -259 -167 -620 0
259 -306 -295 -201 -167 -620 0
258 -260 -167 -620 0
295 -260 -167 -620 0
260 -258 -295 -167 -620 0
258 -261 -167 -620 0
220 -261 -167 -620 0
296 -261 -167 -620 0
261 -258 -220 -296 -167 -620 0
307 -265 -167 -620 0
297 -265 -167 -620 0
202 -265 -167 -620 0
265 -307 -297 -202 -167 -620 0
264 -266 -167 -620 0
297 -266 -167 -620 0
266 -264 -297 -167 -620 0
264 -267 -167 -620 0
225 -267 -167 -620 0
298 -267 -167 -620 0
267 -264 -225 -298 -167 -620 0
308 -271 -167 -620 0
299 -271 -167 -620 0
203 -271 -167 -620 0
271 -308 -299 -203 -167 -620 0
270 -272 -167 -620 0
299 -272 -167 -620 0
272 -270 -299 -167 -620 0
270 -273 -167 -620 0
230 -273 -167 -620 0
300 -273 -167 -620 0
273 -270 -230 -300 -167 -620 0
309 -277 -167 -620 0
301 -277 -167 -620 0
204 -277 -167 -620 0
277 -309 -301 -204 -167 -620 0
276 -278 -167 -620 0
301 -278 -167 -620 0
278 -276 -301 -167 -620 0
276 -279 -167 -620 0
235 -279 -167 -620 0
302 -279 -167 -620 0
279 -276 -235 -302 -167 -620 0
198 290 -167 -620 0
-198 -290 -167 -620 0
199 292 -167 -620 0
-199 -292 -167 -620 0
200 294 -167 -620 0
-200 -294 -167 -620 0
201 296 -167 -620 0
-201 -296 -167 -620 0
202 298 -167 -620 0
-202 -298 -167 -620 0
203 300 -167 -620 0
-203 -300 -167 -620 0
204 302 -167 -620 0
-204 -302 -167 -620 0
205 289 -167 -620 0
-205 -289 -167 -620 0
210 291 -167 -620 0
-210 -291 -167 -620 0
215 293 -167 -620 0
-215 -293 -167 -620 0
220 295 -167 -620 0
-220 -295 -167 -620 0
225 297 -167 -620 0
-225 -297 -167 -620 0
230 299 -167 -620 0
-230 -299 -167 -620 0
235 301 -167 -620 0
-235 -301 -167 -620 0
240 303 -167 -620 0
-240 -303 -167 -620 0
246 304 -167 -620 0
-246 -304 -167 -620 0
252 305 -167 -620 0
-252 -305 -167 -620 0
258 306 -167 -620 0
-258 -306 -167 -620 0
264 307 -167 -620 0
-264 -307 -167 -620 0
270 308 -167 -620 0
-270 -308 -167 -620 0
276 309 -167 -620 0
-276 -309 -167 -620 0
178 -311 -167 -620 0
190 -311 -167 -620 0
311 -178 -190 -167 -620 0
178 -312 -167 -620 0
193 -312 -167 -620 0
312 -178 -193 -167 -620 0
178 -313 -167 -620 0
196 -313 -167 -620 0
313 -178 -196 -167 -620 0
181 -314 -167 -620 0
184 -314 -167 -620 0
314 -181 -184 -167 -620 0
181 -315 -167 -620 0
187 -315 -167 -620 0
315 -181 -187 -167 -620 0
181 -316 -167 -620 0
190 -316 -167 -620 0
316 -181 -190 -167 -620 0
178 -317 -167 -620 0
181 -317 -167 -620 0
317 -178 -181 -167 -620 0
181 -318 -167 -620 0
193 -318 -167 -620 0
318 -181 -193 -167 -620 0
181 -319 -167 -620 0
196 -319 -167 -620 0
319 -181 -196 -167 -620 0
184 -320 -167 -620 0
187 -320 -167 -620 0
320 -184 -187 -167 -620 0
184 -321 -167 -620 0
190 -321 -167 -620 0
321 -184 -190 -167 -620 0
184 -322 -167 -620 0
193 -322 -167 -620 0
322 -184 -193 -167 -620 0
184 -323 -167 -620 0
196 -323 -167 -620 0
323 -184 -196 -167 -620 0
187 -324 -167 -620 0
190 -324 -167 -620 0
324 -187 -190 -167 -620 0
187 -325 -167 -620 0
193 -325 -167 -620 0
325 -187 -193 -167 -620 0
187 -326 -167 -620 0
196 -326 -167 -620 0
326 -187 -196 -167 -620 0
190 -327 -167 -620 0
193 -327 -167 -620 0
327 -190 -193 -167 -620 0
178 -328 -167 -620 0
184 -328 -167 -620 0
328 -178 -184 -167 -620 0
190 -329 -167 -620 0
196 -329 -167 -620 0
329 -190 -196 -167 -620 0
193 -330 -167 -620 0
196 -330 -167 -620 0
330 -193 -196 -167 -620 0
178 -331 -167 -620 0
187 -331 -167 -620 0
331 -178 -187 -167 -620 0
332 333 -167 -620 0
-332 -333 -167 -620 0
332 -317 -167 -620 0
332 -328 -167 -620 0
332 -331 -167 -620 0
332 -311 -167 -620 0
332 -312 -167 -620 0
332 -313 -167 -620 0
332 -314 -167 -620 0
332 -315 -167 -620 0
332 -316 -167 -620 0
332 -318 -167 -620 0
332 -319 -167 -620 0
332 -320 -167 -620 0
332 -321 -167 -620 0
332 -322 -167 -620 0
332 -323 -167 -620 0
332 -324 -167 -620 0
332 -325 -167 -620 0
332 -326 -167 -620 0
332 -327 -167 -620 0
332 -329 -167 -620 0
332 -330 -167 -620 0
317 328 331 311 312 313 314 315 316 318 319 320 321 322 323 324 325 326 327 329 330 -332 -167 -620 0
333 -167 -620 0
209 -376 -167 -620 0
376 -209 -167 -620 0
214 -381 -167 -620 0
381 -214 -167 -620 0
219 -386 -167 -620 0
386 -219 -167 -620 0
224 -391 -167 -620 0
391 -224 -167 -620 0
229 -396 -167 -620 0
396 -229 -167 -620 0
234 -401 -167 -620 0
401 -234 -167 -620 0
239 -406 -167 -620 0
406 -239 -167 -620 0
245 -411 -167 -620 0
411 -245 -167 -620 0
251 -417 -167 -620 0
417 -251 -167 -620 0
257 -423 -167 -620 0
423 -257 -167 -620 0
263 -429 -167 -620 0
429 -263 -167 -620 0
269 -435 -167 -620 0
435 -269 -167 -620 0
275 -441 -167 -620 0
441 -275 -167 -620 0
281 -447 -167 -620 0
447 -281 -167 -620 0
339 338 -167 -620 0
36 -376 -336 -339 -167 -620 0
376 -36 -336 -339 -167 -620 0
41 -381 -336 -339 -167 -620 0
381 -41 -336 -339 -167 -620 0
46 -386 -336 -339 -167 -620 0
386 -46 -336 -339 -167 -620 0
51 -391 -336 -339 -167 -620 0
391 -51 -336 -339 -167 -620 0
56 -396 -336 -339 -167 -620 0
396 -56 -336 -339 -167 -620 0
61 -401 -336 -339 -167 -620 0
401 -61 -336 -339 -167 -620 0
66 -406 -336 -339 -167 -620 0
406 -66 -336 -339 -167 -620 0
71 -411 -336 -339 -167 -620 0
411 -71 -336 -339 -167 -620 0
77 -417 -336 -339 -167 -620 0
417 -77 -336 -339 -167 -620 0
83 -423 -336 -339 -167 -620 0
423 -83 -336 -339 -167 -620 0
89 -429 -336 -339 -167 -620 0
429 -89 -336 -339 -167 -620 0
95 -435 -336 -339 -167 -620 0
435 -95 -336 -339 -167 -620 0
101 -441 -336 -339 -167 -620 0
441 -101 -336 -339 -167 -620 0
107 -447 -336 -339 -167 -620 0
447 -107 -336 -339 -167 -620 0
205 -376 -337 -339 -167 -620 0
376 -205 -337 -339 -167 -620 0
210 -381 -337 -339 -167 -620 0
381 -210 -337 -339 -167 -620 0
215 -386 -337 -339 -167 -620 0
386 -215 -337 -339 -167 -620 0
220 -391 -337 -339 -167 -620 0
391 -220 -337 -339 -167 -620 0
225 -396 -337 -339 -167 -620 0
396 -225 -337 -339 -167 -620 0
230 -401 -337 -339 -167 -620 0
401 -230 -337 -339 -167 -620 0
235 -406 -337 -339 -167 -620 0
406 -235 -337 -339 -167 -620 0
240 -411 -337 -339 -167 -620 0
411 -240 -337 -339 -167 -620 0
246 -417 -337 -339 -167 -620 0
417 -246 -337 -339 -167 -620 0
252 -423 -337 -339 -167 -620 0
423 -252 -337 -339 -167 -620 0
258 -429 -337 -339 -167 -620 0
429 -258 -337 -339 -167 -620 0
264 -435 -337 -339 -167 -620 0
435 -264 -337 -339 -167 -620 0
270 -441 -337 -339 -167 -620 0
441 -270 -337 -339 -167 -620 0
276 -447 -337 -339 -167 -620 0
447 -276 -337 -339 -167 -620 0
336 337 -339 -167 -620 0
348 -349 -338 -167 -620 0
349 -348 -338 -167 -620 0
350 -349 -338 -167 -620 0
349 -350 -338 -167 -620 0
351 -352 -338 -167 -620 0
352 -351 -338 -167 -620 0
353 -352 -338 -167 -620 0
352 -353 -338 -167 -620 0
354 -355 -338 -167 -620 0
355 -354 -338 -167 -620 0
356 -355 -338 -167 -620 0
355 -356 -338 -167 -620 0
357 -358 -338 -167 -620 0
358 -357 -338 -167 -620 0
359 -358 -338 -167 -620 0
358 -359 -338 -167 -620 0
360 -361 -338 -167 -620 0
361 -360 -338 -167 -620 0
362 -361 -338 -167 -620 0
361 -362 -338 -167 -620 0
363 -364 -338 -167 -620 0
364 -363 -338 -167 -620 0
365 -364 -338 -167 -620 0
364 -365 -338 -167 -620 0
366 -367 -338 -167 -620 0
367 -366 -338 -167 -620 0
368 -367 -338 -167 -620 0
367 -368 -338 -167 -620 0
379 -377 -338 -167 -620 0
379 -378 -338 -167 -620 0
377 378 -379 -338 -167 -620 0
379 -380 -338 -167 -620 0
380 -379 -338 -167 -620 0
384 -382 -338 -167 -620 0
384 -383 -338 -167 -620 0
382 383 -384 -338 -167 -620 0
384 -385 -338 -167 -620 0
385 -384 -338 -167 -620 0
389 -387 -338 -167 -620 0
389 -388 -338 -167 -620 0
387 388 -389 -338 -167 -620 0
389 -390 -338 -167 -620 0
390 -389 -338 -167 -620 0
394 -392 -338 -167 -620 0
394 -393 -338 -167 -620 0
392 393 -394 -338 -167 -620 0
394 -395 -338 -167 -620 0
395 -394 -338 -167 -620 0
399 -397 -338 -167 -620 0
399 -398 -338 -167 -620 0
397 398 -399 -338 -167 -620 0
399 -400 -338 -167 -620 0
400 -399 -338 -167 -620 0
404 -402 -338 -167 -620 0
404 -403 -338 -167 -620 0
402 403 -404 -338 -167 -620 0
404 -405 -338 -167 -620 0
405 -404 -338 -167 -620 0
409 -407 -338 -167 -620 0
409 -408 -338 -167 -620 0
407 408 -409 -338 -167 -620 0
409 -410 -338 -167 -620 0
410 -409 -338 -167 -620 0
415 -412 -338 -167 -620 0
415 -413 -338 -167 -620 0
415 -414 -338 -167 -620 0
412 413 414 -415 -338 -167 -620 0
415 -416 -338 -167 -620 0
416 -415 -338 -167 -620 0
421 -418 -338 -167 -620 0
421 -419 -338 -167 -620 0
421 -420 -338 -167 -620 0
418 419 420 -421 -338 -167 -620 0
421 -422 -338 -167 -620 0
422 -421 -338 -167 -620 0
427 -424 -338 -167 -620 0
427 -425 -338 -167 -620 0
427 -426 -338 -167 -620 0
424 425 426 -427 -338 -167 -620 0
427 -428 -338 -167 -620 0
428 -427 -338 -167 -620 0
433 -430 -338 -167 -620 0
433 -431 -338 -167 -620 0
433 -432 -338 -167 -620 0
430 431 432 -433 -338 -167 -620 0
433 -434 -338 -167 -620 0
434 -433 -338 -167 -620 0
439 -436 -338 -167 -620 0
439 -437 -338 -167 -620 0
439 -438 -338 -167 -620 0
436 437 438 -439 -338 -167 -620 0
439 -440 -338 -167 -620 0
440 -439 -338 -167 -620 0
445 -442 -338 -167 -620 0
445 -443 -338 -167 -620 0
445 -444 -338 -167 -620 0
442 443 444 -445 -338 -167 -620 0
445 -446 -338 -167 -620 0
446 -445 -338 -167 -620 0
451 -448 -338 -167 -620 0
451 -449 -338 -167 -620 0
451 -450 -338 -167 -620 0
448 449 450 -451 -338 -167 -620 0
451 -452 -338 -167 -620 0
452 -451 -338 -167 -620 0
411 -453 -338 -167 -620 0
453 -411 -338 -167 -620 0
417 -454 -338 -167 -620 0
454 -417 -338 -167 -620 0
423 -455 -338 -167 -620 0
455 -423 -338 -167 -620 0
429 -456 -338 -167 -620 0
456 -429 -338 -167 -620 0
435 -457 -338 -167 -620 0
457 -435 -338 -167 -620 0
441 -458 -338 -167 -620 0
458 -441 -338 -167 -620 0
447 -459 -338 -167 -620 0
459 -447 -338 -167 -620 0
411 -350 -338 -167 -620 0
376 -350 -338 -167 -620 0
350 -411 -376 -338 -167 -620 0
417 -353 -338 -167 -620 0
381 -353 -338 -167 -620 0
353 -417 -381 -338 -167 -620 0
423 -356 -338 -167 -620 0
386 -356 -338 -167 -620 0
356 -423 -386 -338 -167 -620 0
429 -359 -338 -167 -620 0
391 -359 -338 -167 -620 0
359 -429 -391 -338 -167 -620 0
435 -362 -338 -167 -620 0
396 -362 -338 -167 -620 0
362 -435 -396 -338 -167 -620 0
441 -365 -338 -167 -620 0
401 -365 -338 -167 -620 0
365 -441 -401 -338 -167 -620 0
447 -368 -338 -167 -620 0
406 -368 -338 -167 -620 0
368 -447 -406 -338 -167 -620 0
411 -377 -338 -167 -620 0
460 -377 -338 -167 -620 0
377 -411 -460 -338 -167 -620 0
411 -378 -338 -167 -620 0
376 -378 -338 -167 -620 0
461 -378 -338 -167 -620 0
378 -411 -376 -461 -338 -167 -620 0
417 -382 -338 -167 -620 0
462 -382 -338 -167 -620 0
342 -382 -338 -167 -620 0
382 -417 -462 -342 -338 -167 -620 0
417 -383 -338 -167 -620 0
381 -383 -338 -167 -620 0
463 -383 -338 -167 -620 0
383 -417 -381 -463 -338 -167 -620 0
423 -387 -338 -167 -620 0
464 -387 -338 -167 -620 0
343 -387 -338 -167 -620 0
387 -423 -464 -343 -338 -167 -620 0
423 -388 -338 -167 -620 0
386 -388 -338 -167 -620 0
465 -388 -338 -167 -620 0
388 -423 -386 -465 -338 -167 -620 0
429 -392 -338 -167 -620 0
466 -392 -338 -167 -620 0
344 -392 -338 -167 -620 0
392 -429 -466 -344 -338 -167 -620 0
429 -393 -338 -167 -620 0
391 -393 -338 -167 -620 0
467 -393 -338 -167 -620 0
393 -429 -391 -467 -338 -167 -620 0
435 -397 -338 -167 -620 0
468 -397 -338 -167 -620 0
345 -397 -338 -167 -620 0
397 -435 -468 -345 -338 -167 -620 0
435 -398 -338 -167 -620 0
396 -398 -338 -167 -620 0
469 -398 -338 -167 -620 0
398 -435 -396 -469 -338 -167 -620 0
441 -402 -338 -167 -620 0
470 -402 -338 -167 -620 0
346 -402 -338 -167 -620 0
402 -441 -470 -346 -338 -167 -620 0
441 -403 -338 -167 -620 0
401 -403 -338 -167 -620 0
471 -403 -338 -167 -620 0
403 -441 -401 -471 -338 -167 -620 0
447 -407 -338 -167 -620 0
472 -407 -338 -167 -620 0
347 -407 -338 -167 -620 0
407 -447 -472 -347 -338 -167 -620 0
447 -408 -338 -167 -620 0
406 -408 -338 -167 -620 0
473 -408 -338 -167 -620 0
408 -447 -406 -473 -338 -167 -620 0
474 -412 -338 -167 -620 0
460 -412 -338 -167 -620 0
369 -412 -338 -167 -620 0
412 -474 -460 -369 -338 -167 -620 0
411 -413 -338 -167 -620 0
460 -413 -338 -167 -620 0
413 -411 -460 -338 -167 -620 0
411 -414 -338 -167 -620 0
376 -414 -338 -167 -620 0
461 -414 -338 -167 -620 0
414 -411 -376 -461 -338 -167 -620 0
475 -418 -338 -167 -620 0
462 -418 -338 -167 -620 0
370 -418 -338 -167 -620 0
418 -475 -462 -370 -338 -167 -620 0
417 -419 -338 -167 -620 0
462 -419 -338 -167 -620 0
419 -417 -462 -338 -167 -620 0
417 -420 -338 -167 -620 0
381 -420 -338 -167 -620 0
463 -420 -338 -167 -620 0
420 -417 -381 -463 -338 -167 -620 0
476 -424 -338 -167 -620 0
464 -424 -338 -167 -620 0
371 -424 -338 -167 -620 0
424 -476 -464 -371 -338 -167 -620 0
423 -425 -338 -167 -620 0
464 -425 -338 -167 -620 0
425 -423 -464 -338 -167 -620 0
423 -426 -338 -167 -620 0
386 -426 -338 -167 -620 0
465 -426 -338 -167 -620 0
426 -423 -386 -465 -338 -167 -620 0
477 -430 -338 -167 -620 0
466 -430 -338 -167 -620 0
372 -430 -338 -167 -620 0
430 -477 -466 -372 -338 -167 -620 0
429 -431 -338 -167 -620 0
466 -431 -338 -167 -620 0
431 -429 -466 -338 -167 -620 0
429 -432 -338 -167 -620 0
391 -432 -338 -167 -620 0
467 -432 -338 -167 -620 0
432 -429 -391 -467 -338 -167 -620 0
478 -436 -338 -167 -620 0
468 -436 -338 -167 -620 0
373 -436 -338 -167 -620 0
436 -478 -468 -373 -338 -167 -620 0
435 -437 -338 -167 -620 0
468 -437 -338 -167 -620 0
437 -435 -468 -338 -167 -620 0
435 -438 -338 -167 -620 0
396 -438 -338 -167 -620 0
469 -438 -338 -167 -620 0
438 -435 -396 -469 -338 -167 -620 0
479 -442 -338 -167 -620 0
470 -442 -338 -167 -620 0
374 -442 -338 -167 -620 0
442 -479 -470 -374 -338 -167 -620 0
441 -443 -338 -167 -620 0
470 -443 -338 -167 -620 0
443 -441 -470 -338 -167 -620 0
441 -444 -338 -167 -620 0
401 -444 -338 -167 -620 0
471 -444 -338 -167 -620 0
444 -441 -401 -471 -338 -167 -620 0
480 -448 -338 -167 -620 0
472 -448 -338 -167 -620 0
375 -448 -338 -167 -620 0
448 -480 -472 -375 -338 -167 -620 0
447 -449 -338 -167 -620 0
472 -449 -338 -167 -620 0
449 -447 -472 -338 -167 -620 0
447 -450 -338 -167 -620 0
406 -450 -338 -167 -620 0
473 -450 -338 -167 -620 0
450 -447 -406 -473 -338 -167 -620 0
369 461 -338 -167 -620 0
-369 -461 -338 -167 -620 0
370 463 -338 -167 -620 0
-370 -463 -338 -167 -620 0
371 465 -338 -167 -620 0
-371 -465 -338 -167 -620 0
372 467 -338 -167 -620 0
-372 -467 -338 -167 -620 0
373 469 -338 -167 -620 0
-373 -469 -338 -167 -620 0
374 471 -338 -167 -620 0
-374 -471 -338 -167 -620 0
375 473 -338 -167 -620 0
-375 -473 -338 -167 -620 0
376 460 -338 -167 -620 0
-376 -460 -338 -167 -620 0
381 462 -338 -167 -620 0
-381 -462 -338 -167 -620 0
386 464 -338 -167 -620 0
-386 -464 -338 -167 -620 0
391 466 -338 -167 -620 0
-391 -466 -338 -167 -620 0
396 468 -338 -167 -620 0
-396 -468 -338 -167 -620 0
401 470 -338 -167 -620 0
-401 -470 -338 -167 -620 0
406 472 -338 -167 -620 0
-406 -472 -338 -167 -620 0
411 474 -338 -167 -620 0
-411 -474 -338 -167 -620 0
417 475 -338 -167 -620 0
-417 -475 -338 -167 -620 0
423 476 -338 -167 -620 0
-423 -476 -338 -167 -620 0
429 477 -338 -167 -620 0
-429 -477 -338 -167 -620 0
435 478 -338 -167 -620 0
-435 -478 -338 -167 -620 0
441 479 -338 -167 -620 0
-441 -479 -338 -167 -620 0
447 480 -338 -167 -620 0
-447 -480 -338 -167 -620 0
349 -482 -338 -167 -620 0
361 -482 -338 -167 -620 0
482 -349 -361 -338 -167 -620 0
349 -483 -338 -167 -620 0
364 -483 -338 -167 -620 0
483 -349 -364 -338 -167 -620 0
349 -484 -338 -167 -620 0
367 -484 -338 -167 -620 0
484 -349 -367 -338 -167 -620 0
352 -485 -338 -167 -620 0
355 -485 -338 -167 -620 0
485 -352 -355 -338 -167 -620 0
352 -486 -338 -167 -620 0
358 -486 -338 -167 -620 0
486 -352 -358 -338 -167 -620 0
352 -487 -338 -167 -620 0
361 -487 -338 -167 -620 0
487 -352 -361 -338 -167 -620 0
349 -488 -338 -167 -620 0
352 -488 -338 -167 -620 0
488 -349 -352 -338 -167 -620 0
352 -489 -338 -167 -620 0
364 -489 -338 -167 -620 0
489 -352 -364 -338 -167 -620 0
352 -490 -338 -167 -620 0
367 -490 -338 -167 -620 0
490 -352 -367 -338 -167 -620 0
355 -491 -338 -167 -620 0
358 -491 -338 -167 -620 0
491 -355 -358 -338 -167 -620 0
355 -492 -338 -167 -620 0
361 -492 -338 -167 -620 0
492 -355 -361 -338 -167 -620 0
355 -493 -338 -167 -620 0
364 -493 -338 -167 -620 0
493 -355 -364 -338 -167 -620 0
355 -494 -338 -167 -620 0
367 -494 -338 -167 -620 0
494 -355 -367 -338 -167 -620 0
358 -495 -338 -167 -620 0
361 -495 -338 -167 -620 0
495 -358 -361 -338 -167 -620 0
358 -496 -338 -167 -620 0
364 -496 -338 -167 -620 0
496 -358 -364 -338 -167 -620 0
358 -497 -338 -167 -620 0
367 -497 -338 -167 -620 0
497 -358 -367 -338 -167 -620 0
361 -498 -338 -167 -620 0
364 -498 -338 -167 -620 0
498 -361 -364 -338 -167 -620 0
349 -499 -338 -167 -620 0
355 -499 -338 -167 -620 0
499 -349 -355 -338 -167 -620 0
361 -500 -338 -167 -620 0
367 -500 -338 -167 -620 0
500 -361 -367 -338 -167 -620 0
364 -501 -338 -167 -620 0
367 -501 -338 -167 -620 0
501 -364 -367 -338 -167 -620 0
349 -502 -338 -167 -620 0
358 -502 -338 -167 -620 0
502 -349 -358 -338 -167 -620 0
503 504 -338 -167 -620 0
-503 -504 -338 -167 -620 0
503 -488 -338 -167 -620 0
503 -499 -338 -167 -620 0
503 -502 -338 -167 -620 0
503 -482 -338 -167 -620 0
503 -483 -338 -167 -620 0
503 -484 -338 -167 -620 0
503 -485 -338 -167 -620 0
503 -486 -338 -167 -620 0
503 -487 -338 -167 -620 0
503 -489 -338 -167 -620 0
503 -490 -338 -167 -620 0
503 -491 -338 -167 -620 0
503 -492 -338 -167 -620 0
503 -493 -338 -167 -620 0
503 -494 -338 -167 -620 0
503 -495 -338 -167 -620 0
503 -496 -338 -167 -620 0
503 -497 -338 -167 -620 0
503 -498 -338 -167 -620 0
503 -500 -338 -167 -620 0
503 -501 -338 -167 -620 0
488 499 502 482 483 484 485 486 487 489 490 491 492 493 494 495 496 497 498 500 501 -503 -338 -167 -620 0
504 -338 -167 -620 0
380 -548 -338 -167 -620 0
548 -380 -338 -167 -620 0
385 -553 -338 -167 -620 0
553 -385 -338 -167 -620 0
390 -558 -338 -167 -620 0
558 -390 -338 -167 -620 0
395 -563 -338 -167 -620 0
563 -395 -338 -167 -620 0
400 -568 -338 -167 -620 0
568 -400 -338 -167 -620 0
405 -573 -338 -167 -620 0
573 -405 -338 -167 -620 0
410 -578 -338 -167 -620 0
578 -410 -338 -167 -620 0
416 -583 -338 -167 -620 0
583 -416 -338 -167 -620 0
422 -589 -338 -167 -620 0
589 -422 -338 -167 -620 0
428 -595 -338 -167 -620 0
595 -428 -338 -167 -620 0
434 -601 -338 -167 -620 0
601 -434 -338 -167 -620 0
440 -607 -338 -167 -620 0
607 -440 -338 -167 -620 0
446 -613 -338 -167 -620 0
613 -446 -338 -167 -620 0
452 -619 -338 -167 -620 0
619 -452 -338 -167 -620 0
36 -548 -507 -338 -167 -620 0
548 -36 -507 -338 -167 -620 0
41 -553 -507 -338 -167 -620 0
553 -41 -507 -338 -167 -620 0
46 -558 -507 -338 -167 -620 0
558 -46 -507 -338 -167 -620 0
51 -563 -507 -338 -167 -620 0
563 -51 -507 -338 -167 -620 0
56 -568 -507 -338 -167 -620 0
568 -56 -507 -338 -167 -620 0
61 -573 -507 -338 -167 -620 0
573 -61 -507 -338 -167 -620 0
66 -578 -507 -338 -167 -620 0
578 -66 -507 -338 -167 -620 0
71 -583 -507 -338 -167 -620 0
583 -71 -507 -338 -167 -620 0
77 -589 -507 -338 -167 -620 0
589 -77 -507 -338 -167 -620 0
83 -595 -507 -338 -167 -620 0
595 -83 -507 -338 -167 -620 0
89 -601 -507 -338 -167 -620 0
601 -89 -507 -338 -167 -620 0
95 -607 -507 -338 -167 -620 0
607 -95 -507 -338 -167 -620 0
101 -613 -507 -338 -167 -620 0
613 -101 -507 -338 -167 -620 0
107 -619 -507 -338 -167 -620 0
619 -107 -507 -338 -167 -620 0
205 -548 -508 -338 -167 -620 0
548 -205 -508 -338 -167 -620 0
210 -553 -508 -338 -167 -620 0
553 -210 -508 -338 -167 -620 0
215 -558 -508 -338 -167 -620 0
558 -215 -508 -338 -167 -620 0
220 -563 -508 -338 -167 -620 0
563 -220 -508 -338 -167 -620 0
225 -568 -508 -338 -167 -620 0
568 -225 -508 -338 -167 -620 0
230 -573 -508 -338 -167 -620 0
573 -230 -508 -338 -167 -620 0
235 -578 -508 -338 -167 -620 0
578 -235 -508 -338 -167 -620 0
240 -583 -508 -338 -167 -620 0
583 -240 -508 -338 -167 -620 0
246 -589 -508 -338 -167 -620 0
589 -246 -508 -338 -167 -620 0
252 -595 -508 -338 -167 -620 0
595 -252 -508 -338 -167 -620 0
258 -601 -508 -338 -167 -620 0
601 -258 -508 -338 -167 -620 0
264 -607 -508 -338 -167 -620 0
607 -264 -508 -338 -167 -620 0
270 -613 -508 -338 -167 -620 0
613 -270 -508 -338 -167 -620 0
276 -619 -508 -338 -167 -620 0
619 -276 -508 -338 -167 -620 0
376 -548 -509 -338 -167 -620 0
548 -376 -509 -338 -167 -620 0
381 -553 -509 -338 -167 -620 0
553 -381 -509 -338 -167 -620 0
386 -558 -509 -338 -167 -620 0
558 -386 -509 -338 -167 -620 0
391 -563 -509 -338 -167 -620 0
563 -391 -509 -338 -167 -620 0
396 -568 -509 -338 -167 -620 0
568 -396 -509 -338 -167 -620 0
401 -573 -509 -338 -167 -620 0
573 -401 -509 -338 -167 -620 0
406 -578 -509 -338 -167 -620 0
578 -406 -509 -338 -167 -620 0
411 -583 -509 -338 -167 -620 0
583 -411 -509 -338 -167 -620 0
417 -589 -509 -338 -167 -620 0
589 -417 -509 -338 -167 -620 0
423 -595 -509 -338 -167 -620 0
595 -423 -509 -338 -167 -620 0
429 -601 -509 -338 -167 -620 0
601 -429 -509 -338 -167 -620 0
435 -607 -509 -338 -167 -620 0
607 -435 -509 -338 -167 -620 0
441 -613 -509 -338 -167 -620 0
613 -441 -509 -338 -167 -620 0
447 -619 -509 -338 -167 -620 0
619 -447 -509 -338 -167 -620 0
507 508 509 -338 -167 -620 0
620 621 0
36 41 46 51 56 61 66 71 77 83 89 95 101 107 -621 0
